c NeuroCodeBench 2.0 CNF formula with verdict Sat
p cnf 5 24
3 -2 0
3 1 0
2 3 1 4 0
3 2 -5 0
2 4 3 -5 0
3 2 4 0
3 5 1 -4 0
2 -5 -4 0
5 2 3 -1 0
4 3 5 0
-5 0
-1 0
4 0
4 -3 -5 -1 0
-3 -5 -4 -2 0
5 -3 -1 0
-5 -4 -2 0
5 -1 -4 0
3 5 1 -2 0
5 1 -2 0
4 -5 0
3 0
1 4 -3 0
1 -5 -3 0
